WARNING: for repeatability, setting FPU to use double precision
============================[ Problem Statistics ]=============================
|                                                                             |
|  Number of variables:            50                                         |
|  Number of clauses:             218                                         |
|  Parse time:                   0.00 s                                       |
|                                                                             |
============================[ Search Statistics ]==============================
| Conflicts |          ORIGINAL         |          LEARNT          | Progress |
|           |    Vars  Clauses Literals |    Limit  Clauses Lit/Cl |          |
===============================================================================
===============================================================================
restarts              : 1
conflicts             : 68             (345178 /sec)
decisions             : 91             (0.00 % random) (461929 /sec)
propagations          : 916            (4649746 /sec)
conflict literals     : 305            (11.59 % deleted)
Memory used           : 20.00 MB
CPU time              : 0.000197 s

SATISFIABLE
